
Gurobi 12.0.3 (win64, gurobi_cl) logging started Fri Aug  8 13:20:07 2025

Set parameter LogFile to value "gurobi.log"
Using license file C:\Users\sa\miniconda3\envs\pypsa-earth\gurobi.lic
Restricted license - for non-production use only - expires 2026-11-23

Gurobi 12.0.3 (win64, gurobi_cl) logging started Fri Aug  8 13:23:02 2025

Set parameter LogFile to value "gurobi.log"
Using license file C:\Users\sa\miniconda3\envs\pypsa-earth\gurobi.lic
Restricted license - for non-production use only - expires 2026-11-23

Gurobi 12.0.3 (win64, gurobi_cl) logging started Fri Aug  8 13:23:46 2025

Set parameter LogFile to value "gurobi.log"
Using license file C:\Users\sa\miniconda3\envs\pypsa-earth\gurobi.lic
Restricted license - for non-production use only - expires 2026-11-23

Gurobi 12.0.3 (win64, gurobi_cl) logging started Fri Aug  8 13:27:49 2025

Set parameter LogFile to value "gurobi.log"
Using license file C:\Users\sa\miniconda3\envs\pypsa-earth\gurobi.lic
Restricted license - for non-production use only - expires 2026-11-23

Gurobi 12.0.3 (win64, gurobi_cl) logging started Fri Aug  8 13:33:55 2025

Set parameter LogFile to value "gurobi.log"
Using license file C:\Users\sa\miniconda3\envs\pypsa-earth\gurobi.lic
Restricted license - for non-production use only - expires 2026-11-23

Gurobi 12.0.3 (win64, gurobi_cl) logging started Fri Aug  8 13:35:05 2025

Set parameter LogFile to value "gurobi.log"
Using license file C:\Users\sa\miniconda3\envs\pypsa-earth\gurobi.lic
Restricted license - for non-production use only - expires 2026-11-23

Gurobi 12.0.3 (win64, gurobi_cl) logging started Fri Aug  8 13:40:01 2025

Set parameter LogFile to value "gurobi.log"
Using license file C:\Users\sa\miniconda3\envs\pypsa-earth\gurobi.lic
Restricted license - for non-production use only - expires 2026-11-23

Gurobi 12.0.3 (win64, gurobi_cl) logging started Fri Aug  8 13:43:05 2025

Set parameter LogFile to value "gurobi.log"
Using license file C:\Users\sa\miniconda3\envs\pypsa-earth\gurobi.lic
Restricted license - for non-production use only - expires 2026-11-23

Gurobi 12.0.3 (win64, gurobi_cl) logging started Fri Aug  8 13:44:58 2025

Set parameter LogFile to value "gurobi.log"
Using license file C:\Users\sa\miniconda3\envs\pypsa-earth\gurobi.lic
Restricted license - for non-production use only - expires 2026-11-23

Gurobi 12.0.3 (win64, gurobi_cl) logging started Thu Aug 28 20:53:26 2025

Set parameter LogFile to value "gurobi.log"
Using license file C:\Users\sa\miniconda3\envs\pypsa-earth\gurobi.lic
Restricted license - for non-production use only - expires 2026-11-23

Gurobi 12.0.3 (win64, gurobi_cl) logging started Thu Aug 28 20:56:55 2025

Set parameter LogFile to value "gurobi.log"
Using license file C:\Users\sa\miniconda3\envs\pypsa-earth\gurobi.lic
Restricted license - for non-production use only - expires 2026-11-23

Gurobi 12.0.3 (win64, gurobi_cl) logging started Thu Aug 28 22:18:12 2025

Set parameter LogFile to value "gurobi.log"
Using license file C:\Users\sa\miniconda3\envs\pypsa-earth\gurobi.lic
Restricted license - for non-production use only - expires 2026-11-23

Gurobi 12.0.3 (win64, gurobi_cl) logging started Wed Oct 29 20:35:13 2025

Set parameter LogFile to value "gurobi.log"
Using license file C:\Users\sa\miniconda3\envs\pypsa-earth\gurobi.lic
Restricted license - for non-production use only - expires 2026-11-23

Gurobi 12.0.3 (win64, gurobi_cl) logging started Wed Oct 29 20:35:50 2025

Set parameter LogFile to value "gurobi.log"
Using license file C:\Users\sa\miniconda3\envs\pypsa-earth\gurobi.lic
Restricted license - for non-production use only - expires 2026-11-23

Gurobi 12.0.3 (win64, gurobi_cl) logging started Wed Oct 29 20:36:04 2025

Set parameter LogFile to value "gurobi.log"
Using license file C:\Users\sa\miniconda3\envs\pypsa-earth\gurobi.lic
Restricted license - for non-production use only - expires 2026-11-23

Gurobi 12.0.3 (win64, gurobi_cl) logging started Wed Oct 29 20:37:26 2025

Set parameter LogFile to value "gurobi.log"
Using license file C:\Users\sa\miniconda3\envs\pypsa-earth\gurobi.lic
Restricted license - for non-production use only - expires 2026-11-23

Gurobi 12.0.3 (win64, gurobi_cl) logging started Wed Oct 29 20:37:53 2025

Set parameter LogFile to value "gurobi.log"
Using license file C:\Users\sa\miniconda3\envs\pypsa-earth\gurobi.lic
Restricted license - for non-production use only - expires 2026-11-23

Gurobi 12.0.3 (win64, gurobi_cl) logging started Wed Oct 29 20:38:04 2025

Set parameter LogFile to value "gurobi.log"
Using license file C:\Users\sa\miniconda3\envs\pypsa-earth\gurobi.lic
Restricted license - for non-production use only - expires 2026-11-23

Gurobi 12.0.3 (win64, gurobi_cl) logging started Wed Oct 29 21:01:15 2025

Set parameter LogFile to value "gurobi.log"
Using license file C:\Users\sa\miniconda3\envs\pypsa-earth\gurobi.lic
Restricted license - for non-production use only - expires 2026-11-23

Gurobi 12.0.3 (win64, gurobi_cl) logging started Wed Oct 29 21:01:49 2025

Set parameter LogFile to value "gurobi.log"
Using license file C:\Users\sa\miniconda3\envs\pypsa-earth\gurobi.lic
Restricted license - for non-production use only - expires 2026-11-23

Gurobi 12.0.3 (win64, gurobi_cl) logging started Wed Oct 29 21:02:29 2025

Set parameter LogFile to value "gurobi.log"
Using license file C:\Users\sa\miniconda3\envs\pypsa-earth\gurobi.lic
Restricted license - for non-production use only - expires 2026-11-23

Gurobi 12.0.3 (win64, gurobi_cl) logging started Wed Oct 29 21:12:55 2025

Set parameter LogFile to value "gurobi.log"
Using license file C:\Users\sa\miniconda3\envs\pypsa-earth\gurobi.lic
Restricted license - for non-production use only - expires 2026-11-23

Gurobi 12.0.3 (win64, gurobi_cl) logging started Wed Oct 29 21:13:36 2025

Set parameter LogFile to value "gurobi.log"
Using license file C:\Users\sa\miniconda3\envs\pypsa-earth\gurobi.lic
Restricted license - for non-production use only - expires 2026-11-23

Gurobi 12.0.3 (win64, gurobi_cl) logging started Wed Oct 29 21:20:22 2025

Set parameter LogFile to value "gurobi.log"
Using license file C:\Users\sa\miniconda3\envs\pypsa-earth\gurobi.lic
Restricted license - for non-production use only - expires 2026-11-23

Gurobi 12.0.3 (win64, gurobi_cl) logging started Wed Oct 29 21:20:36 2025

Set parameter LogFile to value "gurobi.log"
Using license file C:\Users\sa\miniconda3\envs\pypsa-earth\gurobi.lic
Restricted license - for non-production use only - expires 2026-11-23

Gurobi 12.0.3 (win64, gurobi_cl) logging started Sat Nov  1 13:22:15 2025

Set parameter LogFile to value "gurobi.log"
Using license file C:\Users\sa\miniconda3\envs\pypsa-earth\gurobi.lic
Restricted license - for non-production use only - expires 2026-11-23

Gurobi 12.0.3 (win64, gurobi_cl) logging started Sat Nov  1 13:23:38 2025

Set parameter LogFile to value "gurobi.log"
Using license file C:\Users\sa\miniconda3\envs\pypsa-earth\gurobi.lic
Restricted license - for non-production use only - expires 2026-11-23

Gurobi 12.0.3 (win64, gurobi_cl) logging started Sat Nov  1 13:24:54 2025

Set parameter LogFile to value "gurobi.log"
Using license file C:\Users\sa\miniconda3\envs\pypsa-earth\gurobi.lic
Restricted license - for non-production use only - expires 2026-11-23

Gurobi 12.0.3 (win64, gurobi_cl) logging started Sat Nov  1 13:33:25 2025

Set parameter LogFile to value "gurobi.log"
Using license file C:\Users\sa\miniconda3\envs\pypsa-earth\gurobi.lic
Restricted license - for non-production use only - expires 2026-11-23

Gurobi 12.0.3 (win64, gurobi_cl) logging started Sat Nov  1 13:34:42 2025

Set parameter LogFile to value "gurobi.log"
Using license file C:\Users\sa\miniconda3\envs\pypsa-earth\gurobi.lic
Restricted license - for non-production use only - expires 2026-11-23

Gurobi 12.0.3 (win64, gurobi_cl) logging started Sat Nov  1 13:39:19 2025

Set parameter LogFile to value "gurobi.log"
Using license file C:\Users\sa\miniconda3\envs\pypsa-earth\gurobi.lic
Restricted license - for non-production use only - expires 2026-11-23

Gurobi 12.0.3 (win64, gurobi_cl) logging started Sat Nov  1 13:40:38 2025

Set parameter LogFile to value "gurobi.log"
Using license file C:\Users\sa\miniconda3\envs\pypsa-earth\gurobi.lic
Restricted license - for non-production use only - expires 2026-11-23

Gurobi 12.0.3 (win64, gurobi_cl) logging started Sat Nov  1 13:47:36 2025

Set parameter LogFile to value "gurobi.log"
Using license file C:\Users\sa\miniconda3\envs\pypsa-earth\gurobi.lic
Restricted license - for non-production use only - expires 2026-11-23

Gurobi 12.0.3 (win64, gurobi_cl) logging started Sat Nov  1 14:12:13 2025

Set parameter LogFile to value "gurobi.log"
Using license file C:\Users\sa\miniconda3\envs\pypsa-earth\gurobi.lic
Restricted license - for non-production use only - expires 2026-11-23

Gurobi 12.0.3 (win64, gurobi_cl) logging started Sat Nov  1 14:13:26 2025

Set parameter LogFile to value "gurobi.log"
Using license file C:\Users\sa\miniconda3\envs\pypsa-earth\gurobi.lic
Restricted license - for non-production use only - expires 2026-11-23

Gurobi 12.0.3 (win64, gurobi_cl) logging started Sat Nov  1 14:13:37 2025

Set parameter LogFile to value "gurobi.log"
Using license file C:\Users\sa\miniconda3\envs\pypsa-earth\gurobi.lic
Restricted license - for non-production use only - expires 2026-11-23

Gurobi 12.0.3 (win64, gurobi_cl) logging started Sat Nov  1 14:13:53 2025

Set parameter LogFile to value "gurobi.log"
Using license file C:\Users\sa\miniconda3\envs\pypsa-earth\gurobi.lic
Restricted license - for non-production use only - expires 2026-11-23

Gurobi 12.0.3 (win64, gurobi_cl) logging started Sat Nov  1 14:14:56 2025

Set parameter LogFile to value "gurobi.log"
Using license file C:\Users\sa\miniconda3\envs\pypsa-earth\gurobi.lic
Restricted license - for non-production use only - expires 2026-11-23

Gurobi 12.0.3 (win64, gurobi_cl) logging started Sat Nov  1 14:26:41 2025

Set parameter LogFile to value "gurobi.log"
Using license file C:\Users\sa\miniconda3\envs\pypsa-earth\gurobi.lic
Restricted license - for non-production use only - expires 2026-11-23

Gurobi 12.0.3 (win64, gurobi_cl) logging started Sat Nov  1 14:30:32 2025

Set parameter LogFile to value "gurobi.log"
Using license file C:\Users\sa\miniconda3\envs\pypsa-earth\gurobi.lic
Restricted license - for non-production use only - expires 2026-11-23

Gurobi 12.0.3 (win64, gurobi_cl) logging started Sat Nov  1 14:55:14 2025

Set parameter LogFile to value "gurobi.log"
Using license file C:\Users\sa\miniconda3\envs\pypsa-earth\gurobi.lic
Restricted license - for non-production use only - expires 2026-11-23

Gurobi 12.0.3 (win64, gurobi_cl) logging started Sat Nov  1 15:16:33 2025

Set parameter LogFile to value "gurobi.log"
Using license file C:\Users\sa\miniconda3\envs\pypsa-earth\gurobi.lic
Restricted license - for non-production use only - expires 2026-11-23

Gurobi 12.0.3 (win64, gurobi_cl) logging started Sat Nov  1 15:38:35 2025

Set parameter LogFile to value "gurobi.log"
Using license file C:\Users\sa\miniconda3\envs\pypsa-earth\gurobi.lic
Restricted license - for non-production use only - expires 2026-11-23

Gurobi 12.0.3 (win64, gurobi_cl) logging started Sat Nov  1 15:40:19 2025

Set parameter LogFile to value "gurobi.log"
Using license file C:\Users\sa\miniconda3\envs\pypsa-earth\gurobi.lic
Restricted license - for non-production use only - expires 2026-11-23

Gurobi 12.0.3 (win64, gurobi_cl) logging started Sat Nov  1 18:03:23 2025

Set parameter LogFile to value "gurobi.log"
Using license file C:\Users\sa\miniconda3\envs\pypsa-earth\gurobi.lic
Restricted license - for non-production use only - expires 2026-11-23

Gurobi 12.0.3 (win64, gurobi_cl) logging started Sat Nov  1 18:05:08 2025

Set parameter LogFile to value "gurobi.log"
Using license file C:\Users\sa\miniconda3\envs\pypsa-earth\gurobi.lic
Restricted license - for non-production use only - expires 2026-11-23

Gurobi 12.0.3 (win64, gurobi_cl) logging started Sat Nov  1 18:06:19 2025

Set parameter LogFile to value "gurobi.log"
Using license file C:\Users\sa\miniconda3\envs\pypsa-earth\gurobi.lic
Restricted license - for non-production use only - expires 2026-11-23

Gurobi 12.0.3 (win64, gurobi_cl) logging started Sat Nov  1 22:00:01 2025

Set parameter LogFile to value "gurobi.log"
Using license file C:\Users\sa\miniconda3\envs\pypsa-earth\gurobi.lic
Restricted license - for non-production use only - expires 2026-11-23

Gurobi 12.0.3 (win64, gurobi_cl) logging started Sat Nov  1 22:01:11 2025

Set parameter LogFile to value "gurobi.log"
Using license file C:\Users\sa\miniconda3\envs\pypsa-earth\gurobi.lic
Restricted license - for non-production use only - expires 2026-11-23

Gurobi 12.0.3 (win64, gurobi_cl) logging started Sat Nov  1 22:19:05 2025

Set parameter LogFile to value "gurobi.log"
Using license file C:\Users\sa\miniconda3\envs\pypsa-earth\gurobi.lic
Restricted license - for non-production use only - expires 2026-11-23

Gurobi 12.0.3 (win64, gurobi_cl) logging started Sat Nov  1 22:19:45 2025

Set parameter LogFile to value "gurobi.log"
Using license file C:\Users\sa\miniconda3\envs\pypsa-earth\gurobi.lic
Restricted license - for non-production use only - expires 2026-11-23

Gurobi 12.0.3 (win64, gurobi_cl) logging started Sat Nov  1 22:20:28 2025

Set parameter LogFile to value "gurobi.log"
Using license file C:\Users\sa\miniconda3\envs\pypsa-earth\gurobi.lic
Restricted license - for non-production use only - expires 2026-11-23

Gurobi 12.0.3 (win64, gurobi_cl) logging started Sat Nov  1 22:20:48 2025

Set parameter LogFile to value "gurobi.log"
Using license file C:\Users\sa\miniconda3\envs\pypsa-earth\gurobi.lic
Restricted license - for non-production use only - expires 2026-11-23

Gurobi 12.0.3 (win64, gurobi_cl) logging started Mon Nov  3 21:20:20 2025

Set parameter LogFile to value "gurobi.log"
Using license file C:\Users\sa\miniconda3\envs\pypsa-earth\gurobi.lic
Restricted license - for non-production use only - expires 2026-11-23

Gurobi 12.0.3 (win64, gurobi_cl) logging started Mon Nov  3 21:20:48 2025

Set parameter LogFile to value "gurobi.log"
Using license file C:\Users\sa\miniconda3\envs\pypsa-earth\gurobi.lic
Restricted license - for non-production use only - expires 2026-11-23

Gurobi 12.0.3 (win64, gurobi_cl) logging started Mon Nov  3 21:21:51 2025

Set parameter LogFile to value "gurobi.log"
Using license file C:\Users\sa\miniconda3\envs\pypsa-earth\gurobi.lic
Restricted license - for non-production use only - expires 2026-11-23

Gurobi 12.0.3 (win64, gurobi_cl) logging started Mon Nov  3 21:22:32 2025

Set parameter LogFile to value "gurobi.log"
Using license file C:\Users\sa\miniconda3\envs\pypsa-earth\gurobi.lic
Restricted license - for non-production use only - expires 2026-11-23

Gurobi 12.0.3 (win64, gurobi_cl) logging started Mon Nov  3 21:23:11 2025

Set parameter LogFile to value "gurobi.log"
Using license file C:\Users\sa\miniconda3\envs\pypsa-earth\gurobi.lic
Restricted license - for non-production use only - expires 2026-11-23

Gurobi 12.0.3 (win64, gurobi_cl) logging started Mon Nov  3 21:25:54 2025

Set parameter LogFile to value "gurobi.log"
Using license file C:\Users\sa\miniconda3\envs\pypsa-earth\gurobi.lic
Restricted license - for non-production use only - expires 2026-11-23

Gurobi 12.0.3 (win64, gurobi_cl) logging started Mon Nov  3 21:33:24 2025

Set parameter LogFile to value "gurobi.log"
Using license file C:\Users\sa\miniconda3\envs\pypsa-earth\gurobi.lic
Restricted license - for non-production use only - expires 2026-11-23

Gurobi 12.0.3 (win64, gurobi_cl) logging started Mon Nov  3 21:38:06 2025

Set parameter LogFile to value "gurobi.log"
Using license file C:\Users\sa\miniconda3\envs\pypsa-earth\gurobi.lic
Restricted license - for non-production use only - expires 2026-11-23

Gurobi 12.0.3 (win64, gurobi_cl) logging started Mon Nov  3 21:39:53 2025

Set parameter LogFile to value "gurobi.log"
Using license file C:\Users\sa\miniconda3\envs\pypsa-earth\gurobi.lic
Restricted license - for non-production use only - expires 2026-11-23

Gurobi 12.0.3 (win64, gurobi_cl) logging started Mon Nov  3 22:34:17 2025

Set parameter LogFile to value "gurobi.log"
Using license file C:\Users\sa\miniconda3\envs\pypsa-earth\gurobi.lic
Restricted license - for non-production use only - expires 2026-11-23

Gurobi 12.0.3 (win64, gurobi_cl) logging started Mon Nov  3 22:35:22 2025

Set parameter LogFile to value "gurobi.log"
Using license file C:\Users\sa\miniconda3\envs\pypsa-earth\gurobi.lic
Restricted license - for non-production use only - expires 2026-11-23

Gurobi 12.0.3 (win64, gurobi_cl) logging started Mon Nov  3 22:36:16 2025

Set parameter LogFile to value "gurobi.log"
Using license file C:\Users\sa\miniconda3\envs\pypsa-earth\gurobi.lic
Restricted license - for non-production use only - expires 2026-11-23

Gurobi 12.0.3 (win64, gurobi_cl) logging started Mon Nov  3 22:36:30 2025

Set parameter LogFile to value "gurobi.log"
Using license file C:\Users\sa\miniconda3\envs\pypsa-earth\gurobi.lic
Restricted license - for non-production use only - expires 2026-11-23

Gurobi 12.0.3 (win64, gurobi_cl) logging started Wed Nov  5 21:28:43 2025

Set parameter LogFile to value "gurobi.log"
Using license file C:\Users\sa\miniconda3\envs\pypsa-earth\gurobi.lic
Restricted license - for non-production use only - expires 2026-11-23

Gurobi 12.0.3 (win64, gurobi_cl) logging started Wed Nov  5 21:57:43 2025

Set parameter LogFile to value "gurobi.log"
Using license file C:\Users\sa\miniconda3\envs\pypsa-earth\gurobi.lic
Restricted license - for non-production use only - expires 2026-11-23

Gurobi 12.0.3 (win64, gurobi_cl) logging started Wed Nov  5 21:59:29 2025

Set parameter LogFile to value "gurobi.log"
Using license file C:\Users\sa\miniconda3\envs\pypsa-earth\gurobi.lic
Restricted license - for non-production use only - expires 2026-11-23

Gurobi 12.0.3 (win64, gurobi_cl) logging started Wed Nov  5 21:59:54 2025

Set parameter LogFile to value "gurobi.log"
Using license file C:\Users\sa\miniconda3\envs\pypsa-earth\gurobi.lic
Restricted license - for non-production use only - expires 2026-11-23

Gurobi 12.0.3 (win64, gurobi_cl) logging started Wed Nov  5 22:00:17 2025

Set parameter LogFile to value "gurobi.log"
Using license file C:\Users\sa\miniconda3\envs\pypsa-earth\gurobi.lic
Restricted license - for non-production use only - expires 2026-11-23

Gurobi 12.0.3 (win64, gurobi_cl) logging started Wed Nov  5 22:00:22 2025

Set parameter LogFile to value "gurobi.log"
Using license file C:\Users\sa\miniconda3\envs\pypsa-earth\gurobi.lic
Restricted license - for non-production use only - expires 2026-11-23

Gurobi 12.0.3 (win64, gurobi_cl) logging started Wed Nov  5 22:00:31 2025

Set parameter LogFile to value "gurobi.log"
Using license file C:\Users\sa\miniconda3\envs\pypsa-earth\gurobi.lic
Restricted license - for non-production use only - expires 2026-11-23

Gurobi 12.0.3 (win64, gurobi_cl) logging started Wed Nov  5 22:12:44 2025

Set parameter LogFile to value "gurobi.log"
Using license file C:\Users\sa\miniconda3\envs\pypsa-earth\gurobi.lic
Restricted license - for non-production use only - expires 2026-11-23

Gurobi 12.0.3 (win64, gurobi_cl) logging started Wed Nov  5 22:23:57 2025

Set parameter LogFile to value "gurobi.log"
Using license file C:\Users\sa\miniconda3\envs\pypsa-earth\gurobi.lic
Restricted license - for non-production use only - expires 2026-11-23

Gurobi 12.0.3 (win64, gurobi_cl) logging started Wed Nov  5 22:24:31 2025

Set parameter LogFile to value "gurobi.log"
Using license file C:\Users\sa\miniconda3\envs\pypsa-earth\gurobi.lic
Restricted license - for non-production use only - expires 2026-11-23

Gurobi 12.0.3 (win64, gurobi_cl) logging started Wed Nov  5 22:24:49 2025

Set parameter LogFile to value "gurobi.log"
Using license file C:\Users\sa\miniconda3\envs\pypsa-earth\gurobi.lic
Restricted license - for non-production use only - expires 2026-11-23

Gurobi 12.0.3 (win64, gurobi_cl) logging started Wed Nov  5 22:24:57 2025

Set parameter LogFile to value "gurobi.log"
Using license file C:\Users\sa\miniconda3\envs\pypsa-earth\gurobi.lic
Restricted license - for non-production use only - expires 2026-11-23

Gurobi 12.0.3 (win64, gurobi_cl) logging started Wed Nov  5 22:34:33 2025

Set parameter LogFile to value "gurobi.log"
Using license file C:\Users\sa\miniconda3\envs\pypsa-earth\gurobi.lic
Restricted license - for non-production use only - expires 2026-11-23

Gurobi 12.0.3 (win64, gurobi_cl) logging started Wed Nov  5 22:38:36 2025

Set parameter LogFile to value "gurobi.log"
Using license file C:\Users\sa\miniconda3\envs\pypsa-earth\gurobi.lic
Restricted license - for non-production use only - expires 2026-11-23

Gurobi 12.0.3 (win64, gurobi_cl) logging started Wed Nov  5 22:39:45 2025

Set parameter LogFile to value "gurobi.log"
Using license file C:\Users\sa\miniconda3\envs\pypsa-earth\gurobi.lic
Restricted license - for non-production use only - expires 2026-11-23

Gurobi 12.0.3 (win64, gurobi_cl) logging started Wed Nov  5 23:48:49 2025

Set parameter LogFile to value "gurobi.log"
Using license file C:\Users\sa\miniconda3\envs\pypsa-earth\gurobi.lic
Restricted license - for non-production use only - expires 2026-11-23

Gurobi 12.0.3 (win64, gurobi_cl) logging started Wed Nov  5 23:49:12 2025

Set parameter LogFile to value "gurobi.log"
Using license file C:\Users\sa\miniconda3\envs\pypsa-earth\gurobi.lic
Restricted license - for non-production use only - expires 2026-11-23

Gurobi 12.0.3 (win64, gurobi_cl) logging started Wed Nov  5 23:49:19 2025

Set parameter LogFile to value "gurobi.log"
Using license file C:\Users\sa\miniconda3\envs\pypsa-earth\gurobi.lic
Restricted license - for non-production use only - expires 2026-11-23

Gurobi 12.0.3 (win64, gurobi_cl) logging started Wed Nov  5 23:49:26 2025

Set parameter LogFile to value "gurobi.log"
Using license file C:\Users\sa\miniconda3\envs\pypsa-earth\gurobi.lic
Restricted license - for non-production use only - expires 2026-11-23

Gurobi 12.0.3 (win64, gurobi_cl) logging started Wed Nov  5 23:53:42 2025

Set parameter LogFile to value "gurobi.log"
Using license file C:\Users\sa\miniconda3\envs\pypsa-earth\gurobi.lic
Restricted license - for non-production use only - expires 2026-11-23

Gurobi 12.0.3 (win64, gurobi_cl) logging started Wed Nov  5 23:54:14 2025

Set parameter LogFile to value "gurobi.log"
Using license file C:\Users\sa\miniconda3\envs\pypsa-earth\gurobi.lic
Restricted license - for non-production use only - expires 2026-11-23

Gurobi 12.0.3 (win64, gurobi_cl) logging started Wed Nov  5 23:56:30 2025

Set parameter LogFile to value "gurobi.log"
Using license file C:\Users\sa\miniconda3\envs\pypsa-earth\gurobi.lic
Restricted license - for non-production use only - expires 2026-11-23

Gurobi 12.0.3 (win64, gurobi_cl) logging started Thu Nov  6 00:00:17 2025

Set parameter LogFile to value "gurobi.log"
Using license file C:\Users\sa\miniconda3\envs\pypsa-earth\gurobi.lic
Restricted license - for non-production use only - expires 2026-11-23

Gurobi 12.0.3 (win64, gurobi_cl) logging started Thu Nov  6 00:00:57 2025

Set parameter LogFile to value "gurobi.log"
Using license file C:\Users\sa\miniconda3\envs\pypsa-earth\gurobi.lic
Restricted license - for non-production use only - expires 2026-11-23

Gurobi 12.0.3 (win64, gurobi_cl) logging started Thu Nov  6 00:02:47 2025

Set parameter LogFile to value "gurobi.log"
Using license file C:\Users\sa\miniconda3\envs\pypsa-earth\gurobi.lic
Restricted license - for non-production use only - expires 2026-11-23

Gurobi 12.0.3 (win64, gurobi_cl) logging started Thu Nov  6 00:07:20 2025

Set parameter LogFile to value "gurobi.log"
Using license file C:\Users\sa\miniconda3\envs\pypsa-earth\gurobi.lic
Restricted license - for non-production use only - expires 2026-11-23

Gurobi 12.0.3 (win64, gurobi_cl) logging started Thu Nov  6 00:10:32 2025

Set parameter LogFile to value "gurobi.log"
Using license file C:\Users\sa\miniconda3\envs\pypsa-earth\gurobi.lic
Restricted license - for non-production use only - expires 2026-11-23

Gurobi 12.0.3 (win64, gurobi_cl) logging started Thu Nov  6 00:10:59 2025

Set parameter LogFile to value "gurobi.log"
Using license file C:\Users\sa\miniconda3\envs\pypsa-earth\gurobi.lic
Restricted license - for non-production use only - expires 2026-11-23

Gurobi 12.0.3 (win64, gurobi_cl) logging started Thu Nov  6 00:11:51 2025

Set parameter LogFile to value "gurobi.log"
Using license file C:\Users\sa\miniconda3\envs\pypsa-earth\gurobi.lic
Restricted license - for non-production use only - expires 2026-11-23

Gurobi 12.0.3 (win64, gurobi_cl) logging started Thu Nov  6 00:12:13 2025

Set parameter LogFile to value "gurobi.log"
Using license file C:\Users\sa\miniconda3\envs\pypsa-earth\gurobi.lic
Restricted license - for non-production use only - expires 2026-11-23

Gurobi 12.0.3 (win64, gurobi_cl) logging started Sun Nov  9 19:41:03 2025

Set parameter LogFile to value "gurobi.log"
Using license file C:\Users\sa\miniconda3\envs\pypsa-earth\gurobi.lic
Restricted license - for non-production use only - expires 2026-11-23

Gurobi 12.0.3 (win64, gurobi_cl) logging started Sun Nov  9 19:41:57 2025

Set parameter LogFile to value "gurobi.log"
Using license file C:\Users\sa\miniconda3\envs\pypsa-earth\gurobi.lic
Restricted license - for non-production use only - expires 2026-11-23

Gurobi 12.0.3 (win64, gurobi_cl) logging started Sun Nov  9 19:42:25 2025

Set parameter LogFile to value "gurobi.log"
Using license file C:\Users\sa\miniconda3\envs\pypsa-earth\gurobi.lic
Restricted license - for non-production use only - expires 2026-11-23

Gurobi 12.0.3 (win64, gurobi_cl) logging started Sun Nov  9 19:43:54 2025

Set parameter LogFile to value "gurobi.log"
Using license file C:\Users\sa\miniconda3\envs\pypsa-earth\gurobi.lic
Restricted license - for non-production use only - expires 2026-11-23

Gurobi 12.0.3 (win64, gurobi_cl) logging started Sun Nov  9 19:46:01 2025

Set parameter LogFile to value "gurobi.log"
Using license file C:\Users\sa\miniconda3\envs\pypsa-earth\gurobi.lic
Restricted license - for non-production use only - expires 2026-11-23

Gurobi 12.0.3 (win64, gurobi_cl) logging started Sun Nov  9 19:47:47 2025

Set parameter LogFile to value "gurobi.log"
Using license file C:\Users\sa\miniconda3\envs\pypsa-earth\gurobi.lic
Restricted license - for non-production use only - expires 2026-11-23

Gurobi 12.0.3 (win64, gurobi_cl) logging started Sun Nov  9 21:39:46 2025

Set parameter LogFile to value "gurobi.log"
Using license file C:\Users\sa\miniconda3\envs\pypsa-earth\gurobi.lic
Restricted license - for non-production use only - expires 2026-11-23

Gurobi 12.0.3 (win64, gurobi_cl) logging started Sun Nov  9 21:40:07 2025

Set parameter LogFile to value "gurobi.log"
Using license file C:\Users\sa\miniconda3\envs\pypsa-earth\gurobi.lic
Restricted license - for non-production use only - expires 2026-11-23

Gurobi 12.0.3 (win64, gurobi_cl) logging started Sun Nov  9 21:40:16 2025

Set parameter LogFile to value "gurobi.log"
Using license file C:\Users\sa\miniconda3\envs\pypsa-earth\gurobi.lic
Restricted license - for non-production use only - expires 2026-11-23

Gurobi 12.0.3 (win64, gurobi_cl) logging started Mon Nov 10 00:22:27 2025

Set parameter LogFile to value "gurobi.log"
Using license file C:\Users\sa\miniconda3\envs\pypsa-earth\gurobi.lic
Restricted license - for non-production use only - expires 2026-11-23

Gurobi 12.0.3 (win64, gurobi_cl) logging started Mon Nov 10 00:27:07 2025

Set parameter LogFile to value "gurobi.log"
Using license file C:\Users\sa\miniconda3\envs\pypsa-earth\gurobi.lic
Restricted license - for non-production use only - expires 2026-11-23

Gurobi 12.0.3 (win64, gurobi_cl) logging started Mon Nov 10 00:29:48 2025

Set parameter LogFile to value "gurobi.log"
Using license file C:\Users\sa\miniconda3\envs\pypsa-earth\gurobi.lic
Restricted license - for non-production use only - expires 2026-11-23

Gurobi 12.0.3 (win64, gurobi_cl) logging started Mon Nov 10 00:32:26 2025

Set parameter LogFile to value "gurobi.log"
Using license file C:\Users\sa\miniconda3\envs\pypsa-earth\gurobi.lic
Restricted license - for non-production use only - expires 2026-11-23

Gurobi 12.0.3 (win64, gurobi_cl) logging started Mon Nov 10 00:34:07 2025

Set parameter LogFile to value "gurobi.log"
Using license file C:\Users\sa\miniconda3\envs\pypsa-earth\gurobi.lic
Restricted license - for non-production use only - expires 2026-11-23

Gurobi 12.0.3 (win64, gurobi_cl) logging started Mon Nov 10 00:39:43 2025

Set parameter LogFile to value "gurobi.log"
Using license file C:\Users\sa\miniconda3\envs\pypsa-earth\gurobi.lic
Restricted license - for non-production use only - expires 2026-11-23

Gurobi 12.0.3 (win64, gurobi_cl) logging started Mon Nov 10 00:41:09 2025

Set parameter LogFile to value "gurobi.log"
Using license file C:\Users\sa\miniconda3\envs\pypsa-earth\gurobi.lic
Restricted license - for non-production use only - expires 2026-11-23

Gurobi 12.0.3 (win64, gurobi_cl) logging started Mon Nov 10 00:42:02 2025

Set parameter LogFile to value "gurobi.log"
Using license file C:\Users\sa\miniconda3\envs\pypsa-earth\gurobi.lic
Restricted license - for non-production use only - expires 2026-11-23

Gurobi 12.0.3 (win64, gurobi_cl) logging started Mon Nov 10 00:43:52 2025

Set parameter LogFile to value "gurobi.log"
Using license file C:\Users\sa\miniconda3\envs\pypsa-earth\gurobi.lic
Restricted license - for non-production use only - expires 2026-11-23

Gurobi 12.0.3 (win64, gurobi_cl) logging started Mon Nov 10 00:51:28 2025

Set parameter LogFile to value "gurobi.log"
Using license file C:\Users\sa\miniconda3\envs\pypsa-earth\gurobi.lic
Restricted license - for non-production use only - expires 2026-11-23

Gurobi 12.0.3 (win64, gurobi_cl) logging started Mon Nov 10 00:52:54 2025

Set parameter LogFile to value "gurobi.log"
Using license file C:\Users\sa\miniconda3\envs\pypsa-earth\gurobi.lic
Restricted license - for non-production use only - expires 2026-11-23

Gurobi 12.0.3 (win64, gurobi_cl) logging started Mon Nov 10 01:02:55 2025

Set parameter LogFile to value "gurobi.log"
Using license file C:\Users\sa\miniconda3\envs\pypsa-earth\gurobi.lic
Restricted license - for non-production use only - expires 2026-11-23

Gurobi 12.0.3 (win64, gurobi_cl) logging started Mon Nov 10 01:04:37 2025

Set parameter LogFile to value "gurobi.log"
Using license file C:\Users\sa\miniconda3\envs\pypsa-earth\gurobi.lic
Restricted license - for non-production use only - expires 2026-11-23

Gurobi 12.0.3 (win64, gurobi_cl) logging started Mon Nov 10 01:11:16 2025

Set parameter LogFile to value "gurobi.log"
Using license file C:\Users\sa\miniconda3\envs\pypsa-earth\gurobi.lic
Restricted license - for non-production use only - expires 2026-11-23

Gurobi 12.0.3 (win64, gurobi_cl) logging started Mon Nov 10 01:13:29 2025

Set parameter LogFile to value "gurobi.log"
Using license file C:\Users\sa\miniconda3\envs\pypsa-earth\gurobi.lic
Restricted license - for non-production use only - expires 2026-11-23

Gurobi 12.0.3 (win64, gurobi_cl) logging started Mon Nov 10 01:15:23 2025

Set parameter LogFile to value "gurobi.log"
Using license file C:\Users\sa\miniconda3\envs\pypsa-earth\gurobi.lic
Restricted license - for non-production use only - expires 2026-11-23

Gurobi 12.0.3 (win64, gurobi_cl) logging started Mon Nov 10 01:17:14 2025

Set parameter LogFile to value "gurobi.log"
Using license file C:\Users\sa\miniconda3\envs\pypsa-earth\gurobi.lic
Restricted license - for non-production use only - expires 2026-11-23

Gurobi 12.0.3 (win64, gurobi_cl) logging started Mon Nov 10 01:20:38 2025

Set parameter LogFile to value "gurobi.log"
Using license file C:\Users\sa\miniconda3\envs\pypsa-earth\gurobi.lic
Restricted license - for non-production use only - expires 2026-11-23

Gurobi 12.0.3 (win64, gurobi_cl) logging started Mon Nov 10 21:49:29 2025

Set parameter LogFile to value "gurobi.log"
Using license file C:\Users\sa\miniconda3\envs\pypsa-earth\gurobi.lic
Restricted license - for non-production use only - expires 2026-11-23
